(set-logic HORN)
(declare-fun !inv0 (Int (Array Int Int) (Array Int Int) Int Int ) Bool)
(assert (forall ((N@0 Int)(array1@0 (Array Int Int))(array2@0 (Array Int Int))(i@0 Int)(j@0 Int)) (=> (and (> |N@0| 0) (= |i@0| 0) (= |j@0| |N@0|)) (!inv0 |N@0| |array1@0| |array2@0| |i@0| |j@0|))))
(assert (forall ((N@0 Int)(array1@0 (Array Int Int))(array2@0 (Array Int Int))(i@0 Int)(j@0 Int)) (=> (and (!inv0 |N@0| |array1@0| |array2@0| |i@0| |j@0|) (not (and (<= |i@0| |j@0|) (< |i@0| |N@0|) (> |j@0| 0))) (not (forall ((k@0 Int)) (=> (and (<= 0 |k@0|) (< |k@0| |N@0|)) (= (select |array1@0| |k@0|) (select |array2@0| (- (- |N@0| |k@0|) 1))))))) false)))
(assert (forall ((N@0 Int)(array1@0 (Array Int Int))(array2@0 (Array Int Int))(i@0 Int)(j@0 Int)(array1@1 (Array Int Int))(array1@2 (Array Int Int))(i@1 Int)(j@1 Int)) (=> (and (!inv0 |N@0| |array1@0| |array2@0| |i@0| |j@0|) (= |array1@1| (store |array1@0| |i@0| (select |array2@0| (- (- |N@0| |i@0|) 1)))) (= |array1@2| (store |array1@1| (- |j@0| 1) (select |array2@0| (- |N@0| |j@0|)))) (= |i@1| (+ |i@0| 1)) (= |j@1| (- |j@0| 1)) (<= |i@0| |j@0|) (< |i@0| |N@0|) (> |j@0| 0)) (!inv0 |N@0| |array1@2| |array2@0| |i@1| |j@1|))))
(check-sat)